NAME: st70-24-4
TYPE: TSP
COMMENT: min_cost = 468.88
DIMENSION: 24
EDGE_WEIGHT_TYPE: EUC_2D
NODE_COORD_SECTION
1 93 54
2 20 18
3 44 33
4 63 36
5 77 13
6 6 8
7 81 76
8 95 86
9 25 76
10 81 34
11 98 7
12 5 67
13 92 34
14 29 60
15 41 76
16 74 67
17 78 92
18 82 88
19 48 82
20 40 35
21 52 18
22 10 55
23 42 67
24 9 100
EOF
